NAME : att48.tsp
COMMENT : Optimal tour for att48.tsp
TYPE : TOUR
DIMENSION : 48
Total Length: 35692.31182841202
TOUR_SECTION
1
8
9
38
31
44
18
7
36
28
30
6
37
19
27
17
43
20
33
46
15
12
11
23
14
25
13
47
21
32
39
48
5
42
24
10
45
35
4
26
2
29
34
3
40
22
16
41
-1
EOF
